c File: flat50_3_0.col
c
c SOURCE: Joseph Culberson (joe@cs.ualberta.ca)
c DESCRIPTION: Quasi-random coloring problem
c              generated with flatness = 0
c                             probability = 0.139
c                             known coloring = 3
c                             random seed = 1453
c              Creation Date:  Tue Jun  9 12:09:43 1998
c Maximum degree = 8 Minimum degree = 2
c p edge 50 115
c cnf created by edge2cnf
p cnf 150 545
-1 -2 0
-1 -3 0
-2 -3 0
1 2 3 0
-4 -5 0
-4 -6 0
-5 -6 0
4 5 6 0
-7 -8 0
-7 -9 0
-8 -9 0
7 8 9 0
-10 -11 0
-10 -12 0
-11 -12 0
10 11 12 0
-13 -14 0
-13 -15 0
-14 -15 0
13 14 15 0
-16 -17 0
-16 -18 0
-17 -18 0
16 17 18 0
-19 -20 0
-19 -21 0
-20 -21 0
19 20 21 0
-22 -23 0
-22 -24 0
-23 -24 0
22 23 24 0
-25 -26 0
-25 -27 0
-26 -27 0
25 26 27 0
-28 -29 0
-28 -30 0
-29 -30 0
28 29 30 0
-31 -32 0
-31 -33 0
-32 -33 0
31 32 33 0
-34 -35 0
-34 -36 0
-35 -36 0
34 35 36 0
-37 -38 0
-37 -39 0
-38 -39 0
37 38 39 0
-40 -41 0
-40 -42 0
-41 -42 0
40 41 42 0
-43 -44 0
-43 -45 0
-44 -45 0
43 44 45 0
-46 -47 0
-46 -48 0
-47 -48 0
46 47 48 0
-49 -50 0
-49 -51 0
-50 -51 0
49 50 51 0
-52 -53 0
-52 -54 0
-53 -54 0
52 53 54 0
-55 -56 0
-55 -57 0
-56 -57 0
55 56 57 0
-58 -59 0
-58 -60 0
-59 -60 0
58 59 60 0
-61 -62 0
-61 -63 0
-62 -63 0
61 62 63 0
-64 -65 0
-64 -66 0
-65 -66 0
64 65 66 0
-67 -68 0
-67 -69 0
-68 -69 0
67 68 69 0
-70 -71 0
-70 -72 0
-71 -72 0
70 71 72 0
-73 -74 0
-73 -75 0
-74 -75 0
73 74 75 0
-76 -77 0
-76 -78 0
-77 -78 0
76 77 78 0
-79 -80 0
-79 -81 0
-80 -81 0
79 80 81 0
-82 -83 0
-82 -84 0
-83 -84 0
82 83 84 0
-85 -86 0
-85 -87 0
-86 -87 0
85 86 87 0
-88 -89 0
-88 -90 0
-89 -90 0
88 89 90 0
-91 -92 0
-91 -93 0
-92 -93 0
91 92 93 0
-94 -95 0
-94 -96 0
-95 -96 0
94 95 96 0
-97 -98 0
-97 -99 0
-98 -99 0
97 98 99 0
-100 -101 0
-100 -102 0
-101 -102 0
100 101 102 0
-103 -104 0
-103 -105 0
-104 -105 0
103 104 105 0
-106 -107 0
-106 -108 0
-107 -108 0
106 107 108 0
-109 -110 0
-109 -111 0
-110 -111 0
109 110 111 0
-112 -113 0
-112 -114 0
-113 -114 0
112 113 114 0
-115 -116 0
-115 -117 0
-116 -117 0
115 116 117 0
-118 -119 0
-118 -120 0
-119 -120 0
118 119 120 0
-121 -122 0
-121 -123 0
-122 -123 0
121 122 123 0
-124 -125 0
-124 -126 0
-125 -126 0
124 125 126 0
-127 -128 0
-127 -129 0
-128 -129 0
127 128 129 0
-130 -131 0
-130 -132 0
-131 -132 0
130 131 132 0
-133 -134 0
-133 -135 0
-134 -135 0
133 134 135 0
-136 -137 0
-136 -138 0
-137 -138 0
136 137 138 0
-139 -140 0
-139 -141 0
-140 -141 0
139 140 141 0
-142 -143 0
-142 -144 0
-143 -144 0
142 143 144 0
-145 -146 0
-145 -147 0
-146 -147 0
145 146 147 0
-148 -149 0
-148 -150 0
-149 -150 0
148 149 150 0
-55 -1 0
-56 -2 0
-57 -3 0
-130 -1 0
-131 -2 0
-132 -3 0
-133 -1 0
-134 -2 0
-135 -3 0
-136 -1 0
-137 -2 0
-138 -3 0
-145 -1 0
-146 -2 0
-147 -3 0
-70 -4 0
-71 -5 0
-72 -6 0
-79 -4 0
-80 -5 0
-81 -6 0
-91 -4 0
-92 -5 0
-93 -6 0
-97 -4 0
-98 -5 0
-99 -6 0
-100 -7 0
-101 -8 0
-102 -9 0
-103 -7 0
-104 -8 0
-105 -9 0
-130 -7 0
-131 -8 0
-132 -9 0
-142 -7 0
-143 -8 0
-144 -9 0
-97 -10 0
-98 -11 0
-99 -12 0
-124 -10 0
-125 -11 0
-126 -12 0
-52 -13 0
-53 -14 0
-54 -15 0
-58 -13 0
-59 -14 0
-60 -15 0
-73 -13 0
-74 -14 0
-75 -15 0
-91 -13 0
-92 -14 0
-93 -15 0
-106 -13 0
-107 -14 0
-108 -15 0
-148 -13 0
-149 -14 0
-150 -15 0
-79 -16 0
-80 -17 0
-81 -18 0
-82 -16 0
-83 -17 0
-84 -18 0
-109 -16 0
-110 -17 0
-111 -18 0
-112 -16 0
-113 -17 0
-114 -18 0
-52 -19 0
-53 -20 0
-54 -21 0
-73 -19 0
-74 -20 0
-75 -21 0
-85 -19 0
-86 -20 0
-87 -21 0
-88 -19 0
-89 -20 0
-90 -21 0
-112 -19 0
-113 -20 0
-114 -21 0
-118 -19 0
-119 -20 0
-120 -21 0
-148 -19 0
-149 -20 0
-150 -21 0
-64 -22 0
-65 -23 0
-66 -24 0
-73 -22 0
-74 -23 0
-75 -24 0
-109 -22 0
-110 -23 0
-111 -24 0
-121 -22 0
-122 -23 0
-123 -24 0
-139 -22 0
-140 -23 0
-141 -24 0
-142 -22 0
-143 -23 0
-144 -24 0
-70 -25 0
-71 -26 0
-72 -27 0
-88 -25 0
-89 -26 0
-90 -27 0
-94 -25 0
-95 -26 0
-96 -27 0
-109 -25 0
-110 -26 0
-111 -27 0
-112 -25 0
-113 -26 0
-114 -27 0
-124 -25 0
-125 -26 0
-126 -27 0
-145 -25 0
-146 -26 0
-147 -27 0
-55 -28 0
-56 -29 0
-57 -30 0
-76 -28 0
-77 -29 0
-78 -30 0
-88 -28 0
-89 -29 0
-90 -30 0
-97 -28 0
-98 -29 0
-99 -30 0
-58 -31 0
-59 -32 0
-60 -33 0
-88 -31 0
-89 -32 0
-90 -33 0
-100 -31 0
-101 -32 0
-102 -33 0
-70 -34 0
-71 -35 0
-72 -36 0
-121 -34 0
-122 -35 0
-123 -36 0
-139 -34 0
-140 -35 0
-141 -36 0
-52 -37 0
-53 -38 0
-54 -39 0
-79 -37 0
-80 -38 0
-81 -39 0
-115 -37 0
-116 -38 0
-117 -39 0
-55 -40 0
-56 -41 0
-57 -42 0
-70 -40 0
-71 -41 0
-72 -42 0
-76 -40 0
-77 -41 0
-78 -42 0
-97 -40 0
-98 -41 0
-99 -42 0
-118 -40 0
-119 -41 0
-120 -42 0
-136 -40 0
-137 -41 0
-138 -42 0
-142 -40 0
-143 -41 0
-144 -42 0
-112 -43 0
-113 -44 0
-114 -45 0
-115 -43 0
-116 -44 0
-117 -45 0
-124 -43 0
-125 -44 0
-126 -45 0
-55 -46 0
-56 -47 0
-57 -48 0
-64 -46 0
-65 -47 0
-66 -48 0
-73 -46 0
-74 -47 0
-75 -48 0
-109 -46 0
-110 -47 0
-111 -48 0
-118 -46 0
-119 -47 0
-120 -48 0
-127 -46 0
-128 -47 0
-129 -48 0
-133 -46 0
-134 -47 0
-135 -48 0
-67 -49 0
-68 -50 0
-69 -51 0
-136 -49 0
-137 -50 0
-138 -51 0
-124 -52 0
-125 -53 0
-126 -54 0
-136 -52 0
-137 -53 0
-138 -54 0
-145 -52 0
-146 -53 0
-147 -54 0
-103 -55 0
-104 -56 0
-105 -57 0
-133 -55 0
-134 -56 0
-135 -57 0
-142 -55 0
-143 -56 0
-144 -57 0
-121 -58 0
-122 -59 0
-123 -60 0
-103 -61 0
-104 -62 0
-105 -63 0
-130 -61 0
-131 -62 0
-132 -63 0
-103 -64 0
-104 -65 0
-105 -66 0
-112 -64 0
-113 -65 0
-114 -66 0
-121 -64 0
-122 -65 0
-123 -66 0
-133 -64 0
-134 -65 0
-135 -66 0
-115 -67 0
-116 -68 0
-117 -69 0
-145 -67 0
-146 -68 0
-147 -69 0
-142 -70 0
-143 -71 0
-144 -72 0
-109 -73 0
-110 -74 0
-111 -75 0
-130 -73 0
-131 -74 0
-132 -75 0
-142 -79 0
-143 -80 0
-144 -81 0
-112 -82 0
-113 -83 0
-114 -84 0
-124 -82 0
-125 -83 0
-126 -84 0
-133 -82 0
-134 -83 0
-135 -84 0
-145 -82 0
-146 -83 0
-147 -84 0
-118 -85 0
-119 -86 0
-120 -87 0
-145 -85 0
-146 -86 0
-147 -87 0
-148 -88 0
-149 -89 0
-150 -90 0
-112 -91 0
-113 -92 0
-114 -93 0
-127 -91 0
-128 -92 0
-129 -93 0
-133 -91 0
-134 -92 0
-135 -93 0
-142 -91 0
-143 -92 0
-144 -93 0
-115 -94 0
-116 -95 0
-117 -96 0
-106 -97 0
-107 -98 0
-108 -99 0
-115 -97 0
-116 -98 0
-117 -99 0
-148 -97 0
-149 -98 0
-150 -99 0
-106 -100 0
-107 -101 0
-108 -102 0
-112 -100 0
-113 -101 0
-114 -102 0
-127 -100 0
-128 -101 0
-129 -102 0
-130 -100 0
-131 -101 0
-132 -102 0
